SPARKNaCl/why3-cvc5/sparknacl-utils.adb_132_43_index_check4_1.smt2
;; produced by cvc5.drv ;;
(set-logic ALL)
(set-info :smt-lib-version 2.6)
;;; generated by SMT-LIB2 driver
;;; SMT-LIB2 driver: bit-vectors, common part
;;; SMT-LIB2: integer arithmetic
;; "pow2"
(declare-fun pow2 (Int) Int)

(declare-const two_power_size_minus_one Int)

;; "two_power_size_minus_one_val"
(assert (= two_power_size_minus_one (pow2 (- 16 1))))

;; "min"
(define-fun min ((x Int) (y Int)) Int
  (ite (<= x y) x y))

;; "max"
(define-fun max ((x Int) (y Int)) Int
  (ite (<= x y) y x))

;; "Min_r"
(assert (forall ((x Int) (y Int)) (=> (<= y x) (= (min x y) y))))

;; "Max_l"
(assert (forall ((x Int) (y Int)) (=> (<= y x) (= (max x y) x))))

;; "Min_comm"
(assert (forall ((x Int) (y Int)) (= (min x y) (min y x))))

;; "Max_comm"
(assert (forall ((x Int) (y Int)) (= (max x y) (max y x))))

;; "Min_assoc"
(assert
  (forall ((x Int) (y Int) (z Int)) (= (min (min x y) z) (min x (min y z)))))

;; "Max_assoc"
(assert
  (forall ((x Int) (y Int) (z Int)) (= (max (max x y) z) (max x (max y z)))))

(declare-sort gf16_normal_limb 0)

;; "to_rep"
(declare-fun to_rep (gf16_normal_limb) (_ BitVec 16))

;; "of_rep"
(declare-fun of_rep ((_ BitVec 16)) gf16_normal_limb)

;; "inversion_axiom"
(assert
  (forall ((x gf16_normal_limb))
    (! (= (of_rep (to_rep x)) x) :pattern ((to_rep x)) )))

;; "range_axiom"
(assert true)

;; "coerce_axiom"
(assert
  (forall ((x (_ BitVec 16)))
    (! (= (to_rep (of_rep x)) x) :pattern ((to_rep (of_rep x))) )))

(declare-sort map1 0)

;; "has_bounds"
(declare-fun has_bounds (map1
  Int
  Int) Bool)

;; "get"
(declare-fun get (map1
  Int) gf16_normal_limb)

;; "set"
(declare-fun set (map1
  Int
  gf16_normal_limb) map1)

;; "set_eq"
(assert
  (forall ((a map1) (i Int) (v gf16_normal_limb))
    (! (= (get (set a i v) i) v) :pattern ((set a i v)) )))

;; "set_neq"
(assert
  (forall ((a map1) (i Int) (v gf16_normal_limb))
    (! (forall ((j Int))
         (! (=> (not (= i j)) (= (get (set a i v) j) (get a j))) :pattern (
         (get
           a
           j)) :pattern ((get (set a i v) j)) )) :pattern ((set a i v)) )))

;; "set_has_bounds"
(assert
  (forall ((a map1) (i Int) (f Int) (l Int) (v gf16_normal_limb))
    (! (=>
         (and (<= f i) (<= i l))
         (=> (has_bounds a f l) (has_bounds (set a i v) f l))) :pattern (
    (has_bounds
      (set a i v)
      f
      l)) )))

(declare-const swap Bool)

;; Goal "def'vc"
;; File "sparknacl-utils.ads", line 44, characters 0-0
(assert
  (not
  (forall ((p map1) (q map1))
    (=>
      (has_bounds p 0 15)
      (=>
        (has_bounds q 0 15)
        (forall ((c (_ BitVec 16)))
          (=>
            (= c (bvmul #xFFFF ((_ int2bv 16) (ite swap 1 0))))
            (forall ((i Int))
              (=>
                (= i 0)
                (=>
                  (= (and (ite (<= 0 i) true false) (ite (<= i 15)
                                                      true
                                                      false)) true)
                  (forall ((o (_ BitVec 16)))
                    (=>
                      (= (to_rep (get q i)) o)
                      (forall ((o1 (_ BitVec 16)))
                        (=>
                          (= (to_rep (get p i)) o1)
                          (forall ((t (_ BitVec 16)))
                            (=>
                              (= t (bvand c (bvxor o1 o)))
                              (=>
                                (ite (= swap true)
                                  (and
                                    (and
                                      (= t (bvxor (to_rep (get p i)) 
                                      (to_rep
                                        (get q i))))
                                      (= (bvxor (to_rep (get p i)) t) 
                                      (to_rep
                                        (get q i))))
                                    (= (bvxor (to_rep (get q i)) t) (to_rep
                                                                    (get p i))))
                                  (and
                                    (and
                                      (= t #x0000)
                                      (= (bvxor (to_rep (get p i)) t) 
                                      (to_rep
                                        (get p i))))
                                    (= (bvxor (to_rep (get q i)) t) (to_rep
                                                                    (get q i)))))
                                (forall ((o2 (_ BitVec 16)))
                                  (=>
                                    (= (to_rep (get p i)) o2)
                                    (forall ((o3 gf16_normal_limb))
                                      (=>
                                        (= (to_rep o3) (bvxor o2 t))
                                        (forall ((p1 map1))
                                          (=>
                                            (= p1 (set p i o3))
                                            (forall ((o4 (_ BitVec 16)))
                                              (=>
                                                (= (to_rep (get q i)) o4)
                                                (forall ((o5 gf16_normal_limb))
                                                  (=>
                                                    (= (to_rep o5) (bvxor o4 t))
                                                    (forall ((q1 map1))
                                                      (=>
                                                        (= q1 (set q i o5))
                                                        (forall ((p2 map1) (q2 map1) (i1 Int))
                                                          (=>
                                                            (ite (= swap true)
                                                              (forall 
                                                                ((j Int))
                                                                (=>
                                                                  (and
                                                                    (<= 0 j)
                                                                    (<= j i1))
                                                                  (and
                                                                    (= 
                                                                    (to_rep
                                                                    (get
                                                                    p2
                                                                    j)) 
                                                                    (to_rep
                                                                    (get q j)))
                                                                    (= 
                                                                    (to_rep
                                                                    (get
                                                                    q2
                                                                    j)) 
                                                                    (to_rep
                                                                    (get p j))))))
                                                              (forall 
                                                                ((j Int))
                                                                (=>
                                                                  (and
                                                                    (<= 0 j)
                                                                    (<= j i1))
                                                                  (and
                                                                    (= 
                                                                    (to_rep
                                                                    (get
                                                                    p2
                                                                    j)) 
                                                                    (to_rep
                                                                    (get p j)))
                                                                    (= 
                                                                    (to_rep
                                                                    (get
                                                                    q2
                                                                    j)) 
                                                                    (to_rep
                                                                    (get q j)))))))
                                                            (=>
                                                              (= (and 
                                                              (ite (and
                                                                    (and
                                                                    (and
                                                                    (has_bounds
                                                                    p2
                                                                    0
                                                                    15)
                                                                    (forall 
                                                                    ((temp___739 Int))
                                                                    (=>
                                                                    (and
                                                                    (<= 0 temp___739)
                                                                    (<= temp___739 15))
                                                                    (=>
                                                                    (or
                                                                    (< 15 temp___739)
                                                                    (or
                                                                    (< temp___739 0)
                                                                    (< i1 temp___739)))
                                                                    (= 
                                                                    (get
                                                                    p2
                                                                    temp___739) 
                                                                    (get
                                                                    p
                                                                    temp___739))))))
                                                                    (has_bounds
                                                                    q2
                                                                    0
                                                                    15))
                                                                    (forall 
                                                                    ((temp___742 Int))
                                                                    (=>
                                                                    (and
                                                                    (<= 0 temp___742)
                                                                    (<= temp___742 15))
                                                                    (=>
                                                                    (or
                                                                    (< 15 temp___742)
                                                                    (or
                                                                    (< temp___742 0)
                                                                    (< i1 temp___742)))
                                                                    (= 
                                                                    (get
                                                                    q2
                                                                    temp___742) 
                                                                    (get
                                                                    q
                                                                    temp___742))))))
                                                                true
                                                                false) 
                                                              (ite (and
                                                                    (<= 0 i1)
                                                                    (<= i1 15))
                                                                true
                                                                false)) true)
                                                              (=>
                                                                (not
                                                                  (= i1 15))
                                                                (forall 
                                                                  ((i2 Int))
                                                                  (=>
                                                                    (= i2 (+ i1 1))
                                                                    (forall 
                                                                    ((o6 (_ BitVec 16)))
                                                                    (=>
                                                                    (= 
                                                                    (to_rep
                                                                    (get
                                                                    q2
                                                                    i2)) o6)
                                                                    (forall 
                                                                    ((o7 (_ BitVec 16)))
                                                                    (=>
                                                                    (= 
                                                                    (to_rep
                                                                    (get
                                                                    p2
                                                                    i2)) o7)
                                                                    (forall 
                                                                    ((t1 (_ BitVec 16)))
                                                                    (=>
                                                                    (= t1 (bvand c (bvxor o7 o6)))
                                                                    (=>
                                                                    (ite (= 
                                                                    swap true)
                                                                    (and
                                                                    (and
                                                                    (= t1 (bvxor 
                                                                    (to_rep
                                                                    (get
                                                                    p2
                                                                    i2)) 
                                                                    (to_rep
                                                                    (get
                                                                    q2
                                                                    i2))))
                                                                    (= (bvxor 
                                                                    (to_rep
                                                                    (get
                                                                    p2
                                                                    i2)) t1) 
                                                                    (to_rep
                                                                    (get
                                                                    q2
                                                                    i2))))
                                                                    (= (bvxor 
                                                                    (to_rep
                                                                    (get
                                                                    q2
                                                                    i2)) t1) 
                                                                    (to_rep
                                                                    (get
                                                                    p2
                                                                    i2))))
                                                                    (and
                                                                    (and
                                                                    (= t1 #x0000)
                                                                    (= (bvxor 
                                                                    (to_rep
                                                                    (get
                                                                    p2
                                                                    i2)) t1) 
                                                                    (to_rep
                                                                    (get
                                                                    p2
                                                                    i2))))
                                                                    (= (bvxor 
                                                                    (to_rep
                                                                    (get
                                                                    q2
                                                                    i2)) t1) 
                                                                    (to_rep
                                                                    (get
                                                                    q2
                                                                    i2)))))
                                                                    (forall 
                                                                    ((o8 (_ BitVec 16)))
                                                                    (=>
                                                                    (= 
                                                                    (to_rep
                                                                    (get
                                                                    p2
                                                                    i2)) o8)
                                                                    (forall 
                                                                    ((o9 gf16_normal_limb))
                                                                    (=>
                                                                    (= 
                                                                    (to_rep
                                                                    o9) (bvxor o8 t1))
                                                                    (forall 
                                                                    ((p3 map1))
                                                                    (=>
                                                                    (= p3 
                                                                    (set
                                                                    p2
                                                                    i2
                                                                    o9))
                                                                    (forall 
                                                                    ((o10 (_ BitVec 16)))
                                                                    (=>
                                                                    (= 
                                                                    (to_rep
                                                                    (get
                                                                    q2
                                                                    i2)) o10)
                                                                    (forall 
                                                                    ((o11 gf16_normal_limb))
                                                                    (=>
                                                                    (= 
                                                                    (to_rep
                                                                    o11) (bvxor o10 t1))
                                                                    (forall 
                                                                    ((q3 map1))
                                                                    (=>
                                                                    (= q3 
                                                                    (set
                                                                    q2
                                                                    i2
                                                                    o11))
                                                                    (=>
                                                                    (= 
                                                                    swap true)
                                                                    (forall 
                                                                    ((usf Int))
                                                                    (=>
                                                                    (= (and 
                                                                    (ite (<= 0 usf)
                                                                    true
                                                                    false) 
                                                                    (ite (<= usf i2)
                                                                    true
                                                                    false)) true)
                                                                    (=>
                                                                    (and
                                                                    (<= 0 usf)
                                                                    (<= usf 15))
                                                                    (forall 
                                                                    ((o12 (_ BitVec 16)))
                                                                    (=>
                                                                    (= 
                                                                    (to_rep
                                                                    (get
                                                                    p
                                                                    usf)) o12)
                                                                    (=>
                                                                    (and
                                                                    (<= 0 usf)
                                                                    (<= usf 15))
                                                                    (forall 
                                                                    ((o13 (_ BitVec 16)))
                                                                    (=>
                                                                    (= 
                                                                    (to_rep
                                                                    (get
                                                                    q3
                                                                    usf)) o13)
                                                                    (<= usf 15))))))))))))))))))))))))))))))))))))))))))))))))))))))))))))))))

(check-sat)
